letting numberLocations be  49
letting costs be function (
(0,0) --> 0,
(0,1) --> 53,
(0,2) --> 44,
(0,3) --> 36,
(0,4) --> 32,
(0,5) --> 58,
(0,6) --> 29,
(0,7) --> 28,
(0,8) --> 65,
(0,9) --> 28,
(0,10) --> 37,
(0,11) --> 61,
(0,12) --> 28,
(0,13) --> 53,
(0,14) --> 39,
(0,15) --> 28,
(0,16) --> 39,
(0,17) --> 48,
(0,18) --> 35,
(0,19) --> 47,
(0,20) --> 61,
(0,21) --> 49,
(0,22) --> 26,
(0,23) --> 29,
(0,24) --> 46,
(0,25) --> 31,
(0,26) --> 54,
(0,27) --> 41,
(0,28) --> 42,
(0,29) --> 31,
(0,30) --> 29,
(0,31) --> 24,
(0,32) --> 42,
(0,33) --> 24,
(0,34) --> 27,
(0,35) --> 29,
(0,36) --> 52,
(0,37) --> 60,
(0,38) --> 27,
(0,39) --> 51,
(0,40) --> 30,
(0,41) --> 23,
(0,42) --> 37,
(0,43) --> 42,
(0,44) --> 46,
(0,45) --> 50,
(0,46) --> 47,
(0,47) --> 21,
(0,48) --> 47,
(0,49) --> 30,
(1,0) --> 53,
(1,1) --> 0,
(1,2) --> 92,
(1,3) --> 62,
(1,4) --> 23,
(1,5) --> 61,
(1,6) --> 76,
(1,7) --> 64,
(1,8) --> 56,
(1,9) --> 25,
(1,10) --> 63,
(1,11) --> 51,
(1,12) --> 26,
(1,13) --> 5,
(1,14) --> 69,
(1,15) --> 77,
(1,16) --> 64,
(1,17) --> 98,
(1,18) --> 67,
(1,19) --> 98,
(1,20) --> 54,
(1,21) --> 54,
(1,22) --> 28,
(1,23) --> 24,
(1,24) --> 70,
(1,25) --> 69,
(1,26) --> 7,
(1,27) --> 65,
(1,28) --> 92,
(1,29) --> 23,
(1,30) --> 65,
(1,31) --> 32,
(1,32) --> 92,
(1,33) --> 30,
(1,34) --> 78,
(1,35) --> 25,
(1,36) --> 64,
(1,37) --> 49,
(1,38) --> 26,
(1,39) --> 10,
(1,40) --> 79,
(1,41) --> 34,
(1,42) --> 63,
(1,43) --> 68,
(1,44) --> 96,
(1,45) --> 59,
(1,46) --> 8,
(1,47) --> 34,
(1,48) --> 96,
(1,49) --> 80,
(2,0) --> 44,
(2,1) --> 92,
(2,2) --> 0,
(2,3) --> 73,
(2,4) --> 69,
(2,5) --> 64,
(2,6) --> 16,
(2,7) --> 61,
(2,8) --> 77,
(2,9) --> 69,
(2,10) --> 73,
(2,11) --> 76,
(2,12) --> 70,
(2,13) --> 94,
(2,14) --> 72,
(2,15) --> 16,
(2,16) --> 75,
(2,17) --> 7,
(2,18) --> 68,
(2,19) --> 10,
(2,20) --> 74,
(2,21) --> 59,
(2,22) --> 68,
(2,23) --> 69,
(2,24) --> 80,
(2,25) --> 61,
(2,26) --> 95,
(2,27) --> 77,
(2,28) --> 3,
(2,29) --> 69,
(2,30) --> 62,
(2,31) --> 68,
(2,32) --> 3,
(2,33) --> 67,
(2,34) --> 17,
(2,35) --> 67,
(2,36) --> 55,
(2,37) --> 75,
(2,38) --> 69,
(2,39) --> 92,
(2,40) --> 14,
(2,41) --> 66,
(2,42) --> 73,
(2,43) --> 76,
(2,44) --> 9,
(2,45) --> 56,
(2,46) --> 87,
(2,47) --> 64,
(2,48) --> 5,
(2,49) --> 15,
(3,0) --> 36,
(3,1) --> 62,
(3,2) --> 73,
(3,3) --> 0,
(3,4) --> 52,
(3,5) --> 91,
(3,6) --> 61,
(3,7) --> 12,
(3,8) --> 96,
(3,9) --> 42,
(3,10) --> 1,
(3,11) --> 91,
(3,12) --> 40,
(3,13) --> 59,
(3,14) --> 7,
(3,15) --> 59,
(3,16) --> 3,
(3,17) --> 75,
(3,18) --> 8,
(3,19) --> 72,
(3,20) --> 92,
(3,21) --> 82,
(3,22) --> 38,
(3,23) --> 47,
(3,24) --> 10,
(3,25) --> 14,
(3,26) --> 58,
(3,27) --> 5,
(3,28) --> 70,
(3,29) --> 49,
(3,30) --> 11,
(3,31) --> 33,
(3,32) --> 70,
(3,33) --> 37,
(3,34) --> 56,
(3,35) --> 50,
(3,36) --> 87,
(3,37) --> 90,
(3,38) --> 41,
(3,39) --> 54,
(3,40) --> 59,
(3,41) --> 31,
(3,42) --> 1,
(3,43) --> 7,
(3,44) --> 71,
(3,45) --> 84,
(3,46) --> 54,
(3,47) --> 34,
(3,48) --> 74,
(3,49) --> 58,
(4,0) --> 32,
(4,1) --> 23,
(4,2) --> 69,
(4,3) --> 52,
(4,4) --> 0,
(4,5) --> 46,
(4,6) --> 53,
(4,7) --> 50,
(4,8) --> 46,
(4,9) --> 10,
(4,10) --> 54,
(4,11) --> 41,
(4,12) --> 13,
(4,13) --> 25,
(4,14) --> 58,
(4,15) --> 54,
(4,16) --> 55,
(4,17) --> 75,
(4,18) --> 55,
(4,19) --> 75,
(4,20) --> 42,
(4,21) --> 37,
(4,22) --> 14,
(4,23) --> 6,
(4,24) --> 62,
(4,25) --> 55,
(4,26) --> 27,
(4,27) --> 57,
(4,28) --> 69,
(4,29) --> 3,
(4,30) --> 52,
(4,31) --> 20,
(4,32) --> 69,
(4,33) --> 16,
(4,34) --> 55,
(4,35) --> 3,
(4,36) --> 46,
(4,37) --> 39,
(4,38) --> 12,
(4,39) --> 26,
(4,40) --> 56,
(4,41) --> 21,
(4,42) --> 54,
(4,43) --> 59,
(4,44) --> 73,
(4,45) --> 42,
(4,46) --> 20,
(4,47) --> 18,
(4,48) --> 73,
(4,49) --> 58,
(5,0) --> 58,
(5,1) --> 61,
(5,2) --> 64,
(5,3) --> 91,
(5,4) --> 46,
(5,5) --> 0,
(5,6) --> 54,
(5,7) --> 85,
(5,8) --> 14,
(5,9) --> 55,
(5,10) --> 93,
(5,11) --> 15,
(5,12) --> 58,
(5,13) --> 66,
(5,14) --> 95,
(5,15) --> 58,
(5,16) --> 95,
(5,17) --> 71,
(5,18) --> 92,
(5,19) --> 74,
(5,20) --> 12,
(5,21) --> 9,
(5,22) --> 59,
(5,23) --> 51,
(5,24) --> 102,
(5,25) --> 89,
(5,26) --> 68,
(5,27) --> 96,
(5,28) --> 66,
(5,29) --> 49,
(5,30) --> 86,
(5,31) --> 63,
(5,32) --> 66,
(5,33) --> 59,
(5,34) --> 61,
(5,35) --> 47,
(5,36) --> 9,
(5,37) --> 16,
(5,38) --> 56,
(5,39) --> 69,
(5,40) --> 59,
(5,41) --> 64,
(5,42) --> 93,
(5,43) --> 98,
(5,44) --> 72,
(5,45) --> 9,
(5,46) --> 62,
(5,47) --> 60,
(5,48) --> 69,
(5,49) --> 62,
(6,0) --> 29,
(6,1) --> 76,
(6,2) --> 16,
(6,3) --> 61,
(6,4) --> 53,
(6,5) --> 54,
(6,6) --> 0,
(6,7) --> 50,
(6,8) --> 66,
(6,9) --> 53,
(6,10) --> 62,
(6,11) --> 63,
(6,12) --> 54,
(6,13) --> 78,
(6,14) --> 61,
(6,15) --> 4,
(6,16) --> 64,
(6,17) --> 22,
(6,18) --> 57,
(6,19) --> 23,
(6,20) --> 62,
(6,21) --> 47,
(6,22) --> 52,
(6,23) --> 52,
(6,24) --> 69,
(6,25) --> 51,
(6,26) --> 79,
(6,27) --> 66,
(6,28) --> 16,
(6,29) --> 53,
(6,30) --> 51,
(6,31) --> 52,
(6,32) --> 16,
(6,33) --> 51,
(6,34) --> 9,
(6,35) --> 51,
(6,36) --> 45,
(6,37) --> 63,
(6,38) --> 53,
(6,39) --> 76,
(6,40) --> 6,
(6,41) --> 51,
(6,42) --> 62,
(6,43) --> 65,
(6,44) --> 21,
(6,45) --> 45,
(6,46) --> 71,
(6,47) --> 48,
(6,48) --> 20,
(6,49) --> 9,
(7,0) --> 28,
(7,1) --> 64,
(7,2) --> 61,
(7,3) --> 12,
(7,4) --> 50,
(7,5) --> 85,
(7,6) --> 50,
(7,7) --> 0,
(7,8) --> 91,
(7,9) --> 42,
(7,10) --> 12,
(7,11) --> 87,
(7,12) --> 39,
(7,13) --> 62,
(7,14) --> 11,
(7,15) --> 48,
(7,16) --> 14,
(7,17) --> 63,
(7,18) --> 7,
(7,19) --> 60,
(7,20) --> 87,
(7,21) --> 76,
(7,22) --> 38,
(7,23) --> 45,
(7,24) --> 19,
(7,25) --> 5,
(7,26) --> 62,
(7,27) --> 16,
(7,28) --> 59,
(7,29) --> 48,
(7,30) --> 1,
(7,31) --> 32,
(7,32) --> 59,
(7,33) --> 36,
(7,34) --> 44,
(7,35) --> 47,
(7,36) --> 80,
(7,37) --> 85,
(7,38) --> 40,
(7,39) --> 57,
(7,40) --> 48,
(7,41) --> 30,
(7,42) --> 12,
(7,43) --> 15,
(7,44) --> 59,
(7,45) --> 77,
(7,46) --> 57,
(7,47) --> 32,
(7,48) --> 62,
(7,49) --> 47,
(8,0) --> 65,
(8,1) --> 56,
(8,2) --> 77,
(8,3) --> 96,
(8,4) --> 46,
(8,5) --> 14,
(8,6) --> 66,
(8,7) --> 91,
(8,8) --> 0,
(8,9) --> 56,
(8,10) --> 97,
(8,11) --> 5,
(8,12) --> 59,
(8,13) --> 61,
(8,14) --> 101,
(8,15) --> 70,
(8,16) --> 99,
(8,17) --> 84,
(8,18) --> 97,
(8,19) --> 87,
(8,20) --> 4,
(8,21) --> 18,
(8,22) --> 60,
(8,23) --> 52,
(8,24) --> 106,
(8,25) --> 95,
(8,26) --> 63,
(8,27) --> 101,
(8,28) --> 79,
(8,29) --> 49,
(8,30) --> 93,
(8,31) --> 65,
(8,32) --> 79,
(8,33) --> 61,
(8,34) --> 73,
(8,35) --> 48,
(8,36) --> 23,
(8,37) --> 7,
(8,38) --> 58,
(8,39) --> 65,
(8,40) --> 72,
(8,41) --> 66,
(8,42) --> 97,
(8,43) --> 103,
(8,44) --> 85,
(8,45) --> 21,
(8,46) --> 59,
(8,47) --> 63,
(8,48) --> 82,
(8,49) --> 74,
(9,0) --> 28,
(9,1) --> 25,
(9,2) --> 69,
(9,3) --> 42,
(9,4) --> 10,
(9,5) --> 55,
(9,6) --> 53,
(9,7) --> 42,
(9,8) --> 56,
(9,9) --> 0,
(9,10) --> 44,
(9,11) --> 51,
(9,12) --> 3,
(9,13) --> 25,
(9,14) --> 48,
(9,15) --> 54,
(9,16) --> 45,
(9,17) --> 74,
(9,18) --> 46,
(9,19) --> 74,
(9,20) --> 52,
(9,21) --> 46,
(9,22) --> 4,
(9,23) --> 4,
(9,24) --> 52,
(9,25) --> 47,
(9,26) --> 26,
(9,27) --> 47,
(9,28) --> 68,
(9,29) --> 7,
(9,30) --> 43,
(9,31) --> 10,
(9,32) --> 68,
(9,33) --> 6,
(9,34) --> 54,
(9,35) --> 8,
(9,36) --> 54,
(9,37) --> 49,
(9,38) --> 1,
(9,39) --> 23,
(9,40) --> 56,
(9,41) --> 11,
(9,42) --> 44,
(9,43) --> 50,
(9,44) --> 72,
(9,45) --> 50,
(9,46) --> 19,
(9,47) --> 9,
(9,48) --> 73,
(9,49) --> 56,
(10,0) --> 37,
(10,1) --> 63,
(10,2) --> 73,
(10,3) --> 1,
(10,4) --> 54,
(10,5) --> 93,
(10,6) --> 62,
(10,7) --> 12,
(10,8) --> 97,
(10,9) --> 44,
(10,10) --> 0,
(10,11) --> 93,
(10,12) --> 41,
(10,13) --> 60,
(10,14) --> 6,
(10,15) --> 60,
(10,16) --> 2,
(10,17) --> 75,
(10,18) --> 7,
(10,19) --> 72,
(10,20) --> 93,
(10,21) --> 83,
(10,22) --> 40,
(10,23) --> 48,
(10,24) --> 9,
(10,25) --> 14,
(10,26) --> 59,
(10,27) --> 4,
(10,28) --> 71,
(10,29) --> 51,
(10,30) --> 12,
(10,31) --> 34,
(10,32) --> 71,
(10,33) --> 38,
(10,34) --> 56,
(10,35) --> 51,
(10,36) --> 89,
(10,37) --> 91,
(10,38) --> 42,
(10,39) --> 55,
(10,40) --> 60,
(10,41) --> 33,
(10,42) --> 0,
(10,43) --> 6,
(10,44) --> 72,
(10,45) --> 85,
(10,46) --> 55,
(10,47) --> 35,
(10,48) --> 74,
(10,49) --> 59,
(11,0) --> 61,
(11,1) --> 51,
(11,2) --> 76,
(11,3) --> 91,
(11,4) --> 41,
(11,5) --> 15,
(11,6) --> 63,
(11,7) --> 87,
(11,8) --> 5,
(11,9) --> 51,
(11,10) --> 93,
(11,11) --> 0,
(11,12) --> 54,
(11,13) --> 56,
(11,14) --> 96,
(11,15) --> 67,
(11,16) --> 94,
(11,17) --> 83,
(11,18) --> 93,
(11,19) --> 85,
(11,20) --> 3,
(11,21) --> 16,
(11,22) --> 55,
(11,23) --> 47,
(11,24) --> 102,
(11,25) --> 91,
(11,26) --> 58,
(11,27) --> 96,
(11,28) --> 77,
(11,29) --> 44,
(11,30) --> 88,
(11,31) --> 60,
(11,32) --> 77,
(11,33) --> 56,
(11,34) --> 70,
(11,35) --> 43,
(11,36) --> 23,
(11,37) --> 2,
(11,38) --> 53,
(11,39) --> 60,
(11,40) --> 69,
(11,41) --> 61,
(11,42) --> 93,
(11,43) --> 98,
(11,44) --> 83,
(11,45) --> 20,
(11,46) --> 54,
(11,47) --> 58,
(11,48) --> 81,
(11,49) --> 71,
(12,0) --> 28,
(12,1) --> 26,
(12,2) --> 70,
(12,3) --> 40,
(12,4) --> 13,
(12,5) --> 58,
(12,6) --> 54,
(12,7) --> 39,
(12,8) --> 59,
(12,9) --> 3,
(12,10) --> 41,
(12,11) --> 54,
(12,12) --> 0,
(12,13) --> 25,
(12,14) --> 46,
(12,15) --> 55,
(12,16) --> 42,
(12,17) --> 75,
(12,18) --> 44,
(12,19) --> 75,
(12,20) --> 56,
(12,21) --> 49,
(12,22) --> 2,
(12,23) --> 8,
(12,24) --> 49,
(12,25) --> 44,
(12,26) --> 26,
(12,27) --> 44,
(12,28) --> 69,
(12,29) --> 10,
(12,30) --> 41,
(12,31) --> 7,
(12,32) --> 69,
(12,33) --> 4,
(12,34) --> 54,
(12,35) --> 11,
(12,36) --> 57,
(12,37) --> 53,
(12,38) --> 2,
(12,39) --> 23,
(12,40) --> 56,
(12,41) --> 9,
(12,42) --> 41,
(12,43) --> 47,
(12,44) --> 73,
(12,45) --> 53,
(12,46) --> 19,
(12,47) --> 8,
(12,48) --> 73,
(12,49) --> 57,
(13,0) --> 53,
(13,1) --> 5,
(13,2) --> 94,
(13,3) --> 59,
(13,4) --> 25,
(13,5) --> 66,
(13,6) --> 78,
(13,7) --> 62,
(13,8) --> 61,
(13,9) --> 25,
(13,10) --> 60,
(13,11) --> 56,
(13,12) --> 25,
(13,13) --> 0,
(13,14) --> 66,
(13,15) --> 79,
(13,16) --> 61,
(13,17) --> 99,
(13,18) --> 65,
(13,19) --> 99,
(13,20) --> 59,
(13,21) --> 58,
(13,22) --> 27,
(13,23) --> 25,
(13,24) --> 67,
(13,25) --> 67,
(13,26) --> 2,
(13,27) --> 62,
(13,28) --> 93,
(13,29) --> 24,
(13,30) --> 63,
(13,31) --> 31,
(13,32) --> 93,
(13,33) --> 29,
(13,34) --> 79,
(13,35) --> 27,
(13,36) --> 68,
(13,37) --> 54,
(13,38) --> 26,
(13,39) --> 6,
(13,40) --> 80,
(13,41) --> 33,
(13,42) --> 60,
(13,43) --> 65,
(13,44) --> 98,
(13,45) --> 64,
(13,46) --> 6,
(13,47) --> 33,
(13,48) --> 98,
(13,49) --> 81,
(14,0) --> 39,
(14,1) --> 69,
(14,2) --> 72,
(14,3) --> 7,
(14,4) --> 58,
(14,5) --> 95,
(14,6) --> 61,
(14,7) --> 11,
(14,8) --> 101,
(14,9) --> 48,
(14,10) --> 6,
(14,11) --> 96,
(14,12) --> 46,
(14,13) --> 66,
(14,14) --> 0,
(14,15) --> 59,
(14,16) --> 6,
(14,17) --> 73,
(14,18) --> 4,
(14,19) --> 70,
(14,20) --> 97,
(14,21) --> 86,
(14,22) --> 44,
(14,23) --> 52,
(14,24) --> 8,
(14,25) --> 11,
(14,26) --> 65,
(14,27) --> 7,
(14,28) --> 69,
(14,29) --> 55,
(14,30) --> 10,
(14,31) --> 39,
(14,32) --> 69,
(14,33) --> 43,
(14,34) --> 55,
(14,35) --> 55,
(14,36) --> 91,
(14,37) --> 94,
(14,38) --> 47,
(14,39) --> 61,
(14,40) --> 59,
(14,41) --> 37,
(14,42) --> 6,
(14,43) --> 4,
(14,44) --> 69,
(14,45) --> 88,
(14,46) --> 61,
(14,47) --> 40,
(14,48) --> 72,
(14,49) --> 57,
(15,0) --> 28,
(15,1) --> 77,
(15,2) --> 16,
(15,3) --> 59,
(15,4) --> 54,
(15,5) --> 58,
(15,6) --> 4,
(15,7) --> 48,
(15,8) --> 70,
(15,9) --> 54,
(15,10) --> 60,
(15,11) --> 67,
(15,12) --> 55,
(15,13) --> 79,
(15,14) --> 59,
(15,15) --> 0,
(15,16) --> 62,
(15,17) --> 21,
(15,18) --> 55,
(15,19) --> 21,
(15,20) --> 66,
(15,21) --> 51,
(15,22) --> 53,
(15,23) --> 54,
(15,24) --> 67,
(15,25) --> 48,
(15,26) --> 80,
(15,27) --> 64,
(15,28) --> 14,
(15,29) --> 55,
(15,30) --> 49,
(15,31) --> 52,
(15,32) --> 14,
(15,33) --> 51,
(15,34) --> 4,
(15,35) --> 52,
(15,36) --> 49,
(15,37) --> 66,
(15,38) --> 54,
(15,39) --> 77,
(15,40) --> 2,
(15,41) --> 51,
(15,42) --> 60,
(15,43) --> 63,
(15,44) --> 19,
(15,45) --> 49,
(15,46) --> 72,
(15,47) --> 48,
(15,48) --> 19,
(15,49) --> 4,
(16,0) --> 39,
(16,1) --> 64,
(16,2) --> 75,
(16,3) --> 3,
(16,4) --> 55,
(16,5) --> 95,
(16,6) --> 64,
(16,7) --> 14,
(16,8) --> 99,
(16,9) --> 45,
(16,10) --> 2,
(16,11) --> 94,
(16,12) --> 42,
(16,13) --> 61,
(16,14) --> 6,
(16,15) --> 62,
(16,16) --> 0,
(16,17) --> 77,
(16,18) --> 8,
(16,19) --> 74,
(16,20) --> 95,
(16,21) --> 85,
(16,22) --> 41,
(16,23) --> 50,
(16,24) --> 7,
(16,25) --> 16,
(16,26) --> 60,
(16,27) --> 2,
(16,28) --> 73,
(16,29) --> 52,
(16,30) --> 13,
(16,31) --> 35,
(16,32) --> 73,
(16,33) --> 40,
(16,34) --> 58,
(16,35) --> 52,
(16,36) --> 90,
(16,37) --> 93,
(16,38) --> 44,
(16,39) --> 56,
(16,40) --> 62,
(16,41) --> 34,
(16,42) --> 2,
(16,43) --> 4,
(16,44) --> 73,
(16,45) --> 87,
(16,46) --> 56,
(16,47) --> 37,
(16,48) --> 76,
(16,49) --> 61,
(17,0) --> 48,
(17,1) --> 98,
(17,2) --> 7,
(17,3) --> 75,
(17,4) --> 75,
(17,5) --> 71,
(17,6) --> 22,
(17,7) --> 63,
(17,8) --> 84,
(17,9) --> 74,
(17,10) --> 75,
(17,11) --> 83,
(17,12) --> 75,
(17,13) --> 99,
(17,14) --> 73,
(17,15) --> 21,
(17,16) --> 77,
(17,17) --> 0,
(17,18) --> 69,
(17,19) --> 4,
(17,20) --> 81,
(17,21) --> 66,
(17,22) --> 73,
(17,23) --> 74,
(17,24) --> 81,
(17,25) --> 62,
(17,26) --> 100,
(17,27) --> 79,
(17,28) --> 6,
(17,29) --> 75,
(17,30) --> 64,
(17,31) --> 73,
(17,32) --> 6,
(17,33) --> 72,
(17,34) --> 21,
(17,35) --> 72,
(17,36) --> 62,
(17,37) --> 82,
(17,38) --> 74,
(17,39) --> 98,
(17,40) --> 19,
(17,41) --> 71,
(17,42) --> 75,
(17,43) --> 77,
(17,44) --> 4,
(17,45) --> 63,
(17,46) --> 93,
(17,47) --> 69,
(17,48) --> 2,
(17,49) --> 18,
(18,0) --> 35,
(18,1) --> 67,
(18,2) --> 68,
(18,3) --> 8,
(18,4) --> 55,
(18,5) --> 92,
(18,6) --> 57,
(18,7) --> 7,
(18,8) --> 97,
(18,9) --> 46,
(18,10) --> 7,
(18,11) --> 93,
(18,12) --> 44,
(18,13) --> 65,
(18,14) --> 4,
(18,15) --> 55,
(18,16) --> 8,
(18,17) --> 69,
(18,18) --> 0,
(18,19) --> 66,
(18,20) --> 93,
(18,21) --> 82,
(18,22) --> 42,
(18,23) --> 50,
(18,24) --> 12,
(18,25) --> 7,
(18,26) --> 64,
(18,27) --> 10,
(18,28) --> 65,
(18,29) --> 53,
(18,30) --> 6,
(18,31) --> 36,
(18,32) --> 65,
(18,33) --> 40,
(18,34) --> 51,
(18,35) --> 52,
(18,36) --> 87,
(18,37) --> 91,
(18,38) --> 45,
(18,39) --> 60,
(18,40) --> 55,
(18,41) --> 35,
(18,42) --> 7,
(18,43) --> 8,
(18,44) --> 65,
(18,45) --> 84,
(18,46) --> 59,
(18,47) --> 37,
(18,48) --> 68,
(18,49) --> 53,
(19,0) --> 47,
(19,1) --> 98,
(19,2) --> 10,
(19,3) --> 72,
(19,4) --> 75,
(19,5) --> 74,
(19,6) --> 23,
(19,7) --> 60,
(19,8) --> 87,
(19,9) --> 74,
(19,10) --> 72,
(19,11) --> 85,
(19,12) --> 75,
(19,13) --> 99,
(19,14) --> 70,
(19,15) --> 21,
(19,16) --> 74,
(19,17) --> 4,
(19,18) --> 66,
(19,19) --> 0,
(19,20) --> 84,
(19,21) --> 69,
(19,22) --> 73,
(19,23) --> 74,
(19,24) --> 78,
(19,25) --> 59,
(19,26) --> 100,
(19,27) --> 76,
(19,28) --> 8,
(19,29) --> 75,
(19,30) --> 61,
(19,31) --> 72,
(19,32) --> 8,
(19,33) --> 71,
(19,34) --> 21,
(19,35) --> 73,
(19,36) --> 65,
(19,37) --> 85,
(19,38) --> 74,
(19,39) --> 98,
(19,40) --> 19,
(19,41) --> 70,
(19,42) --> 72,
(19,43) --> 74,
(19,44) --> 2,
(19,45) --> 66,
(19,46) --> 93,
(19,47) --> 68,
(19,48) --> 6,
(19,49) --> 18,
(20,0) --> 61,
(20,1) --> 54,
(20,2) --> 74,
(20,3) --> 92,
(20,4) --> 42,
(20,5) --> 12,
(20,6) --> 62,
(20,7) --> 87,
(20,8) --> 4,
(20,9) --> 52,
(20,10) --> 93,
(20,11) --> 3,
(20,12) --> 56,
(20,13) --> 59,
(20,14) --> 97,
(20,15) --> 66,
(20,16) --> 95,
(20,17) --> 81,
(20,18) --> 93,
(20,19) --> 84,
(20,20) --> 0,
(20,21) --> 15,
(20,22) --> 56,
(20,23) --> 48,
(20,24) --> 102,
(20,25) --> 91,
(20,26) --> 61,
(20,27) --> 97,
(20,28) --> 75,
(20,29) --> 46,
(20,30) --> 88,
(20,31) --> 61,
(20,32) --> 75,
(20,33) --> 57,
(20,34) --> 69,
(20,35) --> 44,
(20,36) --> 20,
(20,37) --> 4,
(20,38) --> 54,
(20,39) --> 62,
(20,40) --> 68,
(20,41) --> 62,
(20,42) --> 93,
(20,43) --> 99,
(20,44) --> 82,
(20,45) --> 18,
(20,46) --> 56,
(20,47) --> 59,
(20,48) --> 79,
(20,49) --> 70,
(21,0) --> 49,
(21,1) --> 54,
(21,2) --> 59,
(21,3) --> 82,
(21,4) --> 37,
(21,5) --> 9,
(21,6) --> 47,
(21,7) --> 76,
(21,8) --> 18,
(21,9) --> 46,
(21,10) --> 83,
(21,11) --> 16,
(21,12) --> 49,
(21,13) --> 58,
(21,14) --> 86,
(21,15) --> 51,
(21,16) --> 85,
(21,17) --> 66,
(21,18) --> 82,
(21,19) --> 69,
(21,20) --> 15,
(21,21) --> 0,
(21,22) --> 49,
(21,23) --> 42,
(21,24) --> 92,
(21,25) --> 79,
(21,26) --> 60,
(21,27) --> 87,
(21,28) --> 61,
(21,29) --> 40,
(21,30) --> 77,
(21,31) --> 54,
(21,32) --> 61,
(21,33) --> 49,
(21,34) --> 55,
(21,35) --> 38,
(21,36) --> 10,
(21,37) --> 16,
(21,38) --> 47,
(21,39) --> 61,
(21,40) --> 53,
(21,41) --> 54,
(21,42) --> 83,
(21,43) --> 89,
(21,44) --> 67,
(21,45) --> 6,
(21,46) --> 54,
(21,47) --> 50,
(21,48) --> 64,
(21,49) --> 56,
(22,0) --> 26,
(22,1) --> 28,
(22,2) --> 68,
(22,3) --> 38,
(22,4) --> 14,
(22,5) --> 59,
(22,6) --> 52,
(22,7) --> 38,
(22,8) --> 60,
(22,9) --> 4,
(22,10) --> 40,
(22,11) --> 55,
(22,12) --> 2,
(22,13) --> 27,
(22,14) --> 44,
(22,15) --> 53,
(22,16) --> 41,
(22,17) --> 73,
(22,18) --> 42,
(22,19) --> 73,
(22,20) --> 56,
(22,21) --> 49,
(22,22) --> 0,
(22,23) --> 9,
(22,24) --> 48,
(22,25) --> 43,
(22,26) --> 28,
(22,27) --> 42,
(22,28) --> 67,
(22,29) --> 11,
(22,30) --> 39,
(22,31) --> 6,
(22,32) --> 67,
(22,33) --> 2,
(22,34) --> 52,
(22,35) --> 12,
(22,36) --> 57,
(22,37) --> 53,
(22,38) --> 3,
(22,39) --> 25,
(22,40) --> 55,
(22,41) --> 7,
(22,42) --> 40,
(22,43) --> 45,
(22,44) --> 71,
(22,45) --> 53,
(22,46) --> 21,
(22,47) --> 6,
(22,48) --> 72,
(22,49) --> 55,
(23,0) --> 29,
(23,1) --> 24,
(23,2) --> 69,
(23,3) --> 47,
(23,4) --> 6,
(23,5) --> 51,
(23,6) --> 52,
(23,7) --> 45,
(23,8) --> 52,
(23,9) --> 4,
(23,10) --> 48,
(23,11) --> 47,
(23,12) --> 8,
(23,13) --> 25,
(23,14) --> 52,
(23,15) --> 54,
(23,16) --> 50,
(23,17) --> 74,
(23,18) --> 50,
(23,19) --> 74,
(23,20) --> 48,
(23,21) --> 42,
(23,22) --> 9,
(23,23) --> 0,
(23,24) --> 57,
(23,25) --> 50,
(23,26) --> 26,
(23,27) --> 51,
(23,28) --> 68,
(23,29) --> 3,
(23,30) --> 47,
(23,31) --> 14,
(23,32) --> 68,
(23,33) --> 10,
(23,34) --> 54,
(23,35) --> 4,
(23,36) --> 50,
(23,37) --> 45,
(23,38) --> 6,
(23,39) --> 24,
(23,40) --> 55,
(23,41) --> 16,
(23,42) --> 48,
(23,43) --> 54,
(23,44) --> 72,
(23,45) --> 46,
(23,46) --> 19,
(23,47) --> 13,
(23,48) --> 72,
(23,49) --> 56,
(24,0) --> 46,
(24,1) --> 70,
(24,2) --> 80,
(24,3) --> 10,
(24,4) --> 62,
(24,5) --> 102,
(24,6) --> 69,
(24,7) --> 19,
(24,8) --> 106,
(24,9) --> 52,
(24,10) --> 9,
(24,11) --> 102,
(24,12) --> 49,
(24,13) --> 67,
(24,14) --> 8,
(24,15) --> 67,
(24,16) --> 7,
(24,17) --> 81,
(24,18) --> 12,
(24,19) --> 78,
(24,20) --> 102,
(24,21) --> 92,
(24,22) --> 48,
(24,23) --> 57,
(24,24) --> 0,
(24,25) --> 19,
(24,26) --> 66,
(24,27) --> 6,
(24,28) --> 77,
(24,29) --> 59,
(24,30) --> 18,
(24,31) --> 42,
(24,32) --> 77,
(24,33) --> 47,
(24,34) --> 63,
(24,35) --> 60,
(24,36) --> 97,
(24,37) --> 100,
(24,38) --> 51,
(24,39) --> 62,
(24,40) --> 67,
(24,41) --> 41,
(24,42) --> 9,
(24,43) --> 4,
(24,44) --> 77,
(24,45) --> 94,
(24,46) --> 63,
(24,47) --> 44,
(24,48) --> 80,
(24,49) --> 66,
(25,0) --> 31,
(25,1) --> 69,
(25,2) --> 61,
(25,3) --> 14,
(25,4) --> 55,
(25,5) --> 89,
(25,6) --> 51,
(25,7) --> 5,
(25,8) --> 95,
(25,9) --> 47,
(25,10) --> 14,
(25,11) --> 91,
(25,12) --> 44,
(25,13) --> 67,
(25,14) --> 11,
(25,15) --> 48,
(25,16) --> 16,
(25,17) --> 62,
(25,18) --> 7,
(25,19) --> 59,
(25,20) --> 91,
(25,21) --> 79,
(25,22) --> 43,
(25,23) --> 50,
(25,24) --> 19,
(25,25) --> 0,
(25,26) --> 67,
(25,27) --> 17,
(25,28) --> 58,
(25,29) --> 53,
(25,30) --> 4,
(25,31) --> 37,
(25,32) --> 58,
(25,33) --> 41,
(25,34) --> 44,
(25,35) --> 52,
(25,36) --> 83,
(25,37) --> 89,
(25,38) --> 45,
(25,39) --> 63,
(25,40) --> 48,
(25,41) --> 35,
(25,42) --> 14,
(25,43) --> 15,
(25,44) --> 58,
(25,45) --> 81,
(25,46) --> 62,
(25,47) --> 37,
(25,48) --> 61,
(25,49) --> 47,
(26,0) --> 54,
(26,1) --> 7,
(26,2) --> 95,
(26,3) --> 58,
(26,4) --> 27,
(26,5) --> 68,
(26,6) --> 79,
(26,7) --> 62,
(26,8) --> 63,
(26,9) --> 26,
(26,10) --> 59,
(26,11) --> 58,
(26,12) --> 26,
(26,13) --> 2,
(26,14) --> 65,
(26,15) --> 80,
(26,16) --> 60,
(26,17) --> 100,
(26,18) --> 64,
(26,19) --> 100,
(26,20) --> 61,
(26,21) --> 60,
(26,22) --> 28,
(26,23) --> 26,
(26,24) --> 66,
(26,25) --> 67,
(26,26) --> 0,
(26,27) --> 61,
(26,28) --> 94,
(26,29) --> 26,
(26,30) --> 63,
(26,31) --> 31,
(26,32) --> 94,
(26,33) --> 30,
(26,34) --> 80,
(26,35) --> 28,
(26,36) --> 70,
(26,37) --> 56,
(26,38) --> 27,
(26,39) --> 4,
(26,40) --> 81,
(26,41) --> 33,
(26,42) --> 59,
(26,43) --> 65,
(26,44) --> 98,
(26,45) --> 65,
(26,46) --> 7,
(26,47) --> 34,
(26,48) --> 98,
(26,49) --> 82,
(27,0) --> 41,
(27,1) --> 65,
(27,2) --> 77,
(27,3) --> 5,
(27,4) --> 57,
(27,5) --> 96,
(27,6) --> 66,
(27,7) --> 16,
(27,8) --> 101,
(27,9) --> 47,
(27,10) --> 4,
(27,11) --> 96,
(27,12) --> 44,
(27,13) --> 62,
(27,14) --> 7,
(27,15) --> 64,
(27,16) --> 2,
(27,17) --> 79,
(27,18) --> 10,
(27,19) --> 76,
(27,20) --> 97,
(27,21) --> 87,
(27,22) --> 42,
(27,23) --> 51,
(27,24) --> 6,
(27,25) --> 17,
(27,26) --> 61,
(27,27) --> 0,
(27,28) --> 75,
(27,29) --> 54,
(27,30) --> 15,
(27,31) --> 37,
(27,32) --> 75,
(27,33) --> 41,
(27,34) --> 60,
(27,35) --> 54,
(27,36) --> 92,
(27,37) --> 94,
(27,38) --> 45,
(27,39) --> 56,
(27,40) --> 64,
(27,41) --> 35,
(27,42) --> 4,
(27,43) --> 4,
(27,44) --> 75,
(27,45) --> 89,
(27,46) --> 57,
(27,47) --> 39,
(27,48) --> 78,
(27,49) --> 63,
(28,0) --> 42,
(28,1) --> 92,
(28,2) --> 3,
(28,3) --> 70,
(28,4) --> 69,
(28,5) --> 66,
(28,6) --> 16,
(28,7) --> 59,
(28,8) --> 79,
(28,9) --> 68,
(28,10) --> 71,
(28,11) --> 77,
(28,12) --> 69,
(28,13) --> 93,
(28,14) --> 69,
(28,15) --> 14,
(28,16) --> 73,
(28,17) --> 6,
(28,18) --> 65,
(28,19) --> 8,
(28,20) --> 75,
(28,21) --> 61,
(28,22) --> 67,
(28,23) --> 68,
(28,24) --> 77,
(28,25) --> 58,
(28,26) --> 94,
(28,27) --> 75,
(28,28) --> 0,
(28,29) --> 69,
(28,30) --> 59,
(28,31) --> 67,
(28,32) --> 0,
(28,33) --> 66,
(28,34) --> 16,
(28,35) --> 66,
(28,36) --> 57,
(28,37) --> 77,
(28,38) --> 68,
(28,39) --> 92,
(28,40) --> 13,
(28,41) --> 65,
(28,42) --> 71,
(28,43) --> 73,
(28,44) --> 6,
(28,45) --> 58,
(28,46) --> 87,
(28,47) --> 63,
(28,48) --> 4,
(28,49) --> 13,
(29,0) --> 31,
(29,1) --> 23,
(29,2) --> 69,
(29,3) --> 49,
(29,4) --> 3,
(29,5) --> 49,
(29,6) --> 53,
(29,7) --> 48,
(29,8) --> 49,
(29,9) --> 7,
(29,10) --> 51,
(29,11) --> 44,
(29,12) --> 10,
(29,13) --> 24,
(29,14) --> 55,
(29,15) --> 55,
(29,16) --> 52,
(29,17) --> 75,
(29,18) --> 53,
(29,19) --> 75,
(29,20) --> 46,
(29,21) --> 40,
(29,22) --> 11,
(29,23) --> 3,
(29,24) --> 59,
(29,25) --> 53,
(29,26) --> 26,
(29,27) --> 54,
(29,28) --> 69,
(29,29) --> 0,
(29,30) --> 49,
(29,31) --> 17,
(29,32) --> 69,
(29,33) --> 13,
(29,34) --> 55,
(29,35) --> 3,
(29,36) --> 49,
(29,37) --> 42,
(29,38) --> 9,
(29,39) --> 24,
(29,40) --> 56,
(29,41) --> 18,
(29,42) --> 51,
(29,43) --> 57,
(29,44) --> 74,
(29,45) --> 44,
(29,46) --> 18,
(29,47) --> 16,
(29,48) --> 73,
(29,49) --> 58,
(30,0) --> 29,
(30,1) --> 65,
(30,2) --> 62,
(30,3) --> 11,
(30,4) --> 52,
(30,5) --> 86,
(30,6) --> 51,
(30,7) --> 1,
(30,8) --> 93,
(30,9) --> 43,
(30,10) --> 12,
(30,11) --> 88,
(30,12) --> 41,
(30,13) --> 63,
(30,14) --> 10,
(30,15) --> 49,
(30,16) --> 13,
(30,17) --> 64,
(30,18) --> 6,
(30,19) --> 61,
(30,20) --> 88,
(30,21) --> 77,
(30,22) --> 39,
(30,23) --> 47,
(30,24) --> 18,
(30,25) --> 4,
(30,26) --> 63,
(30,27) --> 15,
(30,28) --> 59,
(30,29) --> 49,
(30,30) --> 0,
(30,31) --> 34,
(30,32) --> 59,
(30,33) --> 37,
(30,34) --> 45,
(30,35) --> 49,
(30,36) --> 81,
(30,37) --> 87,
(30,38) --> 42,
(30,39) --> 59,
(30,40) --> 49,
(30,41) --> 32,
(30,42) --> 12,
(30,43) --> 14,
(30,44) --> 60,
(30,45) --> 79,
(30,46) --> 58,
(30,47) --> 34,
(30,48) --> 63,
(30,49) --> 48,
(31,0) --> 24,
(31,1) --> 32,
(31,2) --> 68,
(31,3) --> 33,
(31,4) --> 20,
(31,5) --> 63,
(31,6) --> 52,
(31,7) --> 32,
(31,8) --> 65,
(31,9) --> 10,
(31,10) --> 34,
(31,11) --> 60,
(31,12) --> 7,
(31,13) --> 31,
(31,14) --> 39,
(31,15) --> 52,
(31,16) --> 35,
(31,17) --> 73,
(31,18) --> 36,
(31,19) --> 72,
(31,20) --> 61,
(31,21) --> 54,
(31,22) --> 6,
(31,23) --> 14,
(31,24) --> 42,
(31,25) --> 37,
(31,26) --> 31,
(31,27) --> 37,
(31,28) --> 67,
(31,29) --> 17,
(31,30) --> 34,
(31,31) --> 0,
(31,32) --> 67,
(31,33) --> 4,
(31,34) --> 51,
(31,35) --> 17,
(31,36) --> 61,
(31,37) --> 59,
(31,38) --> 8,
(31,39) --> 27,
(31,40) --> 54,
(31,41) --> 2,
(31,42) --> 34,
(31,43) --> 40,
(31,44) --> 70,
(31,45) --> 57,
(31,46) --> 25,
(31,47) --> 4,
(31,48) --> 71,
(31,49) --> 54,
(32,0) --> 42,
(32,1) --> 92,
(32,2) --> 3,
(32,3) --> 70,
(32,4) --> 69,
(32,5) --> 66,
(32,6) --> 16,
(32,7) --> 59,
(32,8) --> 79,
(32,9) --> 68,
(32,10) --> 71,
(32,11) --> 77,
(32,12) --> 69,
(32,13) --> 93,
(32,14) --> 69,
(32,15) --> 14,
(32,16) --> 73,
(32,17) --> 6,
(32,18) --> 65,
(32,19) --> 8,
(32,20) --> 75,
(32,21) --> 61,
(32,22) --> 67,
(32,23) --> 68,
(32,24) --> 77,
(32,25) --> 58,
(32,26) --> 94,
(32,27) --> 75,
(32,28) --> 0,
(32,29) --> 69,
(32,30) --> 59,
(32,31) --> 67,
(32,32) --> 0,
(32,33) --> 66,
(32,34) --> 16,
(32,35) --> 66,
(32,36) --> 57,
(32,37) --> 77,
(32,38) --> 68,
(32,39) --> 92,
(32,40) --> 13,
(32,41) --> 65,
(32,42) --> 71,
(32,43) --> 73,
(32,44) --> 6,
(32,45) --> 58,
(32,46) --> 87,
(32,47) --> 63,
(32,48) --> 4,
(32,49) --> 13,
(33,0) --> 24,
(33,1) --> 30,
(33,2) --> 67,
(33,3) --> 37,
(33,4) --> 16,
(33,5) --> 59,
(33,6) --> 51,
(33,7) --> 36,
(33,8) --> 61,
(33,9) --> 6,
(33,10) --> 38,
(33,11) --> 56,
(33,12) --> 4,
(33,13) --> 29,
(33,14) --> 43,
(33,15) --> 51,
(33,16) --> 40,
(33,17) --> 72,
(33,18) --> 40,
(33,19) --> 71,
(33,20) --> 57,
(33,21) --> 49,
(33,22) --> 2,
(33,23) --> 10,
(33,24) --> 47,
(33,25) --> 41,
(33,26) --> 30,
(33,27) --> 41,
(33,28) --> 66,
(33,29) --> 13,
(33,30) --> 37,
(33,31) --> 4,
(33,32) --> 66,
(33,33) --> 0,
(33,34) --> 51,
(33,35) --> 13,
(33,36) --> 57,
(33,37) --> 54,
(33,38) --> 4,
(33,39) --> 27,
(33,40) --> 53,
(33,41) --> 6,
(33,42) --> 38,
(33,43) --> 44,
(33,44) --> 70,
(33,45) --> 53,
(33,46) --> 23,
(33,47) --> 4,
(33,48) --> 70,
(33,49) --> 54,
(34,0) --> 27,
(34,1) --> 78,
(34,2) --> 17,
(34,3) --> 56,
(34,4) --> 55,
(34,5) --> 61,
(34,6) --> 9,
(34,7) --> 44,
(34,8) --> 73,
(34,9) --> 54,
(34,10) --> 56,
(34,11) --> 70,
(34,12) --> 54,
(34,13) --> 79,
(34,14) --> 55,
(34,15) --> 4,
(34,16) --> 58,
(34,17) --> 21,
(34,18) --> 51,
(34,19) --> 21,
(34,20) --> 69,
(34,21) --> 55,
(34,22) --> 52,
(34,23) --> 54,
(34,24) --> 63,
(34,25) --> 44,
(34,26) --> 80,
(34,27) --> 60,
(34,28) --> 16,
(34,29) --> 55,
(34,30) --> 45,
(34,31) --> 51,
(34,32) --> 16,
(34,33) --> 51,
(34,34) --> 0,
(34,35) --> 52,
(34,36) --> 53,
(34,37) --> 70,
(34,38) --> 53,
(34,39) --> 77,
(34,40) --> 4,
(34,41) --> 50,
(34,42) --> 56,
(34,43) --> 59,
(34,44) --> 19,
(34,45) --> 53,
(34,46) --> 72,
(34,47) --> 47,
(34,48) --> 20,
(34,49) --> 3,
(35,0) --> 29,
(35,1) --> 25,
(35,2) --> 67,
(35,3) --> 50,
(35,4) --> 3,
(35,5) --> 47,
(35,6) --> 51,
(35,7) --> 47,
(35,8) --> 48,
(35,9) --> 8,
(35,10) --> 51,
(35,11) --> 43,
(35,12) --> 11,
(35,13) --> 27,
(35,14) --> 55,
(35,15) --> 52,
(35,16) --> 52,
(35,17) --> 72,
(35,18) --> 52,
(35,19) --> 73,
(35,20) --> 44,
(35,21) --> 38,
(35,22) --> 12,
(35,23) --> 4,
(35,24) --> 60,
(35,25) --> 52,
(35,26) --> 28,
(35,27) --> 54,
(35,28) --> 66,
(35,29) --> 3,
(35,30) --> 49,
(35,31) --> 17,
(35,32) --> 66,
(35,33) --> 13,
(35,34) --> 52,
(35,35) --> 0,
(35,36) --> 46,
(35,37) --> 41,
(35,38) --> 9,
(35,39) --> 27,
(35,40) --> 54,
(35,41) --> 19,
(35,42) --> 51,
(35,43) --> 57,
(35,44) --> 71,
(35,45) --> 42,
(35,46) --> 21,
(35,47) --> 16,
(35,48) --> 71,
(35,49) --> 55,
(36,0) --> 52,
(36,1) --> 64,
(36,2) --> 55,
(36,3) --> 87,
(36,4) --> 46,
(36,5) --> 9,
(36,6) --> 45,
(36,7) --> 80,
(36,8) --> 23,
(36,9) --> 54,
(36,10) --> 89,
(36,11) --> 23,
(36,12) --> 57,
(36,13) --> 68,
(36,14) --> 91,
(36,15) --> 49,
(36,16) --> 90,
(36,17) --> 62,
(36,18) --> 87,
(36,19) --> 65,
(36,20) --> 20,
(36,21) --> 10,
(36,22) --> 57,
(36,23) --> 50,
(36,24) --> 97,
(36,25) --> 83,
(36,26) --> 70,
(36,27) --> 92,
(36,28) --> 57,
(36,29) --> 49,
(36,30) --> 81,
(36,31) --> 61,
(36,32) --> 57,
(36,33) --> 57,
(36,34) --> 53,
(36,35) --> 46,
(36,36) --> 0,
(36,37) --> 23,
(36,38) --> 55,
(36,39) --> 70,
(36,40) --> 51,
(36,41) --> 61,
(36,42) --> 89,
(36,43) --> 94,
(36,44) --> 63,
(36,45) --> 4,
(36,46) --> 64,
(36,47) --> 57,
(36,48) --> 60,
(36,49) --> 54,
(37,0) --> 60,
(37,1) --> 49,
(37,2) --> 75,
(37,3) --> 90,
(37,4) --> 39,
(37,5) --> 16,
(37,6) --> 63,
(37,7) --> 85,
(37,8) --> 7,
(37,9) --> 49,
(37,10) --> 91,
(37,11) --> 2,
(37,12) --> 53,
(37,13) --> 54,
(37,14) --> 94,
(37,15) --> 66,
(37,16) --> 93,
(37,17) --> 82,
(37,18) --> 91,
(37,19) --> 85,
(37,20) --> 4,
(37,21) --> 16,
(37,22) --> 53,
(37,23) --> 45,
(37,24) --> 100,
(37,25) --> 89,
(37,26) --> 56,
(37,27) --> 94,
(37,28) --> 77,
(37,29) --> 42,
(37,30) --> 87,
(37,31) --> 59,
(37,32) --> 77,
(37,33) --> 54,
(37,34) --> 70,
(37,35) --> 41,
(37,36) --> 23,
(37,37) --> 0,
(37,38) --> 51,
(37,39) --> 58,
(37,40) --> 68,
(37,41) --> 59,
(37,42) --> 91,
(37,43) --> 97,
(37,44) --> 83,
(37,45) --> 20,
(37,46) --> 52,
(37,47) --> 56,
(37,48) --> 80,
(37,49) --> 71,
(38,0) --> 27,
(38,1) --> 26,
(38,2) --> 69,
(38,3) --> 41,
(38,4) --> 12,
(38,5) --> 56,
(38,6) --> 53,
(38,7) --> 40,
(38,8) --> 58,
(38,9) --> 1,
(38,10) --> 42,
(38,11) --> 53,
(38,12) --> 2,
(38,13) --> 26,
(38,14) --> 47,
(38,15) --> 54,
(38,16) --> 44,
(38,17) --> 74,
(38,18) --> 45,
(38,19) --> 74,
(38,20) --> 54,
(38,21) --> 47,
(38,22) --> 3,
(38,23) --> 6,
(38,24) --> 51,
(38,25) --> 45,
(38,26) --> 27,
(38,27) --> 45,
(38,28) --> 68,
(38,29) --> 9,
(38,30) --> 42,
(38,31) --> 8,
(38,32) --> 68,
(38,33) --> 4,
(38,34) --> 53,
(38,35) --> 9,
(38,36) --> 55,
(38,37) --> 51,
(38,38) --> 0,
(38,39) --> 24,
(38,40) --> 55,
(38,41) --> 10,
(38,42) --> 42,
(38,43) --> 48,
(38,44) --> 72,
(38,45) --> 51,
(38,46) --> 20,
(38,47) --> 8,
(38,48) --> 72,
(38,49) --> 56,
(39,0) --> 51,
(39,1) --> 10,
(39,2) --> 92,
(39,3) --> 54,
(39,4) --> 26,
(39,5) --> 69,
(39,6) --> 76,
(39,7) --> 57,
(39,8) --> 65,
(39,9) --> 23,
(39,10) --> 55,
(39,11) --> 60,
(39,12) --> 23,
(39,13) --> 6,
(39,14) --> 61,
(39,15) --> 77,
(39,16) --> 56,
(39,17) --> 98,
(39,18) --> 60,
(39,19) --> 98,
(39,20) --> 62,
(39,21) --> 61,
(39,22) --> 25,
(39,23) --> 24,
(39,24) --> 62,
(39,25) --> 63,
(39,26) --> 4,
(39,27) --> 56,
(39,28) --> 92,
(39,29) --> 24,
(39,30) --> 59,
(39,31) --> 27,
(39,32) --> 92,
(39,33) --> 27,
(39,34) --> 77,
(39,35) --> 27,
(39,36) --> 70,
(39,37) --> 58,
(39,38) --> 24,
(39,39) --> 0,
(39,40) --> 79,
(39,41) --> 29,
(39,42) --> 55,
(39,43) --> 60,
(39,44) --> 96,
(39,45) --> 66,
(39,46) --> 6,
(39,47) --> 30,
(39,48) --> 96,
(39,49) --> 80,
(40,0) --> 30,
(40,1) --> 79,
(40,2) --> 14,
(40,3) --> 59,
(40,4) --> 56,
(40,5) --> 59,
(40,6) --> 6,
(40,7) --> 48,
(40,8) --> 72,
(40,9) --> 56,
(40,10) --> 60,
(40,11) --> 69,
(40,12) --> 56,
(40,13) --> 80,
(40,14) --> 59,
(40,15) --> 2,
(40,16) --> 62,
(40,17) --> 19,
(40,18) --> 55,
(40,19) --> 19,
(40,20) --> 68,
(40,21) --> 53,
(40,22) --> 55,
(40,23) --> 55,
(40,24) --> 67,
(40,25) --> 48,
(40,26) --> 81,
(40,27) --> 64,
(40,28) --> 13,
(40,29) --> 56,
(40,30) --> 49,
(40,31) --> 54,
(40,32) --> 13,
(40,33) --> 53,
(40,34) --> 4,
(40,35) --> 54,
(40,36) --> 51,
(40,37) --> 68,
(40,38) --> 55,
(40,39) --> 79,
(40,40) --> 0,
(40,41) --> 52,
(40,42) --> 60,
(40,43) --> 63,
(40,44) --> 17,
(40,45) --> 51,
(40,46) --> 74,
(40,47) --> 50,
(40,48) --> 17,
(40,49) --> 3,
(41,0) --> 23,
(41,1) --> 34,
(41,2) --> 66,
(41,3) --> 31,
(41,4) --> 21,
(41,5) --> 64,
(41,6) --> 51,
(41,7) --> 30,
(41,8) --> 66,
(41,9) --> 11,
(41,10) --> 33,
(41,11) --> 61,
(41,12) --> 9,
(41,13) --> 33,
(41,14) --> 37,
(41,15) --> 51,
(41,16) --> 34,
(41,17) --> 71,
(41,18) --> 35,
(41,19) --> 70,
(41,20) --> 62,
(41,21) --> 54,
(41,22) --> 7,
(41,23) --> 16,
(41,24) --> 41,
(41,25) --> 35,
(41,26) --> 33,
(41,27) --> 35,
(41,28) --> 65,
(41,29) --> 18,
(41,30) --> 32,
(41,31) --> 2,
(41,32) --> 65,
(41,33) --> 6,
(41,34) --> 50,
(41,35) --> 19,
(41,36) --> 61,
(41,37) --> 59,
(41,38) --> 10,
(41,39) --> 29,
(41,40) --> 52,
(41,41) --> 0,
(41,42) --> 33,
(41,43) --> 38,
(41,44) --> 69,
(41,45) --> 57,
(41,46) --> 27,
(41,47) --> 4,
(41,48) --> 70,
(41,49) --> 53,
(42,0) --> 37,
(42,1) --> 63,
(42,2) --> 73,
(42,3) --> 1,
(42,4) --> 54,
(42,5) --> 93,
(42,6) --> 62,
(42,7) --> 12,
(42,8) --> 97,
(42,9) --> 44,
(42,10) --> 0,
(42,11) --> 93,
(42,12) --> 41,
(42,13) --> 60,
(42,14) --> 6,
(42,15) --> 60,
(42,16) --> 2,
(42,17) --> 75,
(42,18) --> 7,
(42,19) --> 72,
(42,20) --> 93,
(42,21) --> 83,
(42,22) --> 40,
(42,23) --> 48,
(42,24) --> 9,
(42,25) --> 14,
(42,26) --> 59,
(42,27) --> 4,
(42,28) --> 71,
(42,29) --> 51,
(42,30) --> 12,
(42,31) --> 34,
(42,32) --> 71,
(42,33) --> 38,
(42,34) --> 56,
(42,35) --> 51,
(42,36) --> 89,
(42,37) --> 91,
(42,38) --> 42,
(42,39) --> 55,
(42,40) --> 60,
(42,41) --> 33,
(42,42) --> 0,
(42,43) --> 6,
(42,44) --> 72,
(42,45) --> 85,
(42,46) --> 55,
(42,47) --> 35,
(42,48) --> 74,
(42,49) --> 59,
(43,0) --> 42,
(43,1) --> 68,
(43,2) --> 76,
(43,3) --> 7,
(43,4) --> 59,
(43,5) --> 98,
(43,6) --> 65,
(43,7) --> 15,
(43,8) --> 103,
(43,9) --> 50,
(43,10) --> 6,
(43,11) --> 98,
(43,12) --> 47,
(43,13) --> 65,
(43,14) --> 4,
(43,15) --> 63,
(43,16) --> 4,
(43,17) --> 77,
(43,18) --> 8,
(43,19) --> 74,
(43,20) --> 99,
(43,21) --> 89,
(43,22) --> 45,
(43,23) --> 54,
(43,24) --> 4,
(43,25) --> 15,
(43,26) --> 65,
(43,27) --> 4,
(43,28) --> 73,
(43,29) --> 57,
(43,30) --> 14,
(43,31) --> 40,
(43,32) --> 73,
(43,33) --> 44,
(43,34) --> 59,
(43,35) --> 57,
(43,36) --> 94,
(43,37) --> 97,
(43,38) --> 48,
(43,39) --> 60,
(43,40) --> 63,
(43,41) --> 38,
(43,42) --> 6,
(43,43) --> 0,
(43,44) --> 74,
(43,45) --> 91,
(43,46) --> 61,
(43,47) --> 41,
(43,48) --> 77,
(43,49) --> 62,
(44,0) --> 46,
(44,1) --> 96,
(44,2) --> 9,
(44,3) --> 71,
(44,4) --> 73,
(44,5) --> 72,
(44,6) --> 21,
(44,7) --> 59,
(44,8) --> 85,
(44,9) --> 72,
(44,10) --> 72,
(44,11) --> 83,
(44,12) --> 73,
(44,13) --> 98,
(44,14) --> 69,
(44,15) --> 19,
(44,16) --> 73,
(44,17) --> 4,
(44,18) --> 65,
(44,19) --> 2,
(44,20) --> 82,
(44,21) --> 67,
(44,22) --> 71,
(44,23) --> 72,
(44,24) --> 77,
(44,25) --> 58,
(44,26) --> 98,
(44,27) --> 75,
(44,28) --> 6,
(44,29) --> 74,
(44,30) --> 60,
(44,31) --> 70,
(44,32) --> 6,
(44,33) --> 70,
(44,34) --> 19,
(44,35) --> 71,
(44,36) --> 63,
(44,37) --> 83,
(44,38) --> 72,
(44,39) --> 96,
(44,40) --> 17,
(44,41) --> 69,
(44,42) --> 72,
(44,43) --> 74,
(44,44) --> 0,
(44,45) --> 64,
(44,46) --> 91,
(44,47) --> 66,
(44,48) --> 4,
(44,49) --> 16,
(45,0) --> 50,
(45,1) --> 59,
(45,2) --> 56,
(45,3) --> 84,
(45,4) --> 42,
(45,5) --> 9,
(45,6) --> 45,
(45,7) --> 77,
(45,8) --> 21,
(45,9) --> 50,
(45,10) --> 85,
(45,11) --> 20,
(45,12) --> 53,
(45,13) --> 64,
(45,14) --> 88,
(45,15) --> 49,
(45,16) --> 87,
(45,17) --> 63,
(45,18) --> 84,
(45,19) --> 66,
(45,20) --> 18,
(45,21) --> 6,
(45,22) --> 53,
(45,23) --> 46,
(45,24) --> 94,
(45,25) --> 81,
(45,26) --> 65,
(45,27) --> 89,
(45,28) --> 58,
(45,29) --> 44,
(45,30) --> 79,
(45,31) --> 57,
(45,32) --> 58,
(45,33) --> 53,
(45,34) --> 53,
(45,35) --> 42,
(45,36) --> 4,
(45,37) --> 20,
(45,38) --> 51,
(45,39) --> 66,
(45,40) --> 51,
(45,41) --> 57,
(45,42) --> 85,
(45,43) --> 91,
(45,44) --> 64,
(45,45) --> 0,
(45,46) --> 59,
(45,47) --> 53,
(45,48) --> 61,
(45,49) --> 54,
(46,0) --> 47,
(46,1) --> 8,
(46,2) --> 87,
(46,3) --> 54,
(46,4) --> 20,
(46,5) --> 62,
(46,6) --> 71,
(46,7) --> 57,
(46,8) --> 59,
(46,9) --> 19,
(46,10) --> 55,
(46,11) --> 54,
(46,12) --> 19,
(46,13) --> 6,
(46,14) --> 61,
(46,15) --> 72,
(46,16) --> 56,
(46,17) --> 93,
(46,18) --> 59,
(46,19) --> 93,
(46,20) --> 56,
(46,21) --> 54,
(46,22) --> 21,
(46,23) --> 19,
(46,24) --> 63,
(46,25) --> 62,
(46,26) --> 7,
(46,27) --> 57,
(46,28) --> 87,
(46,29) --> 18,
(46,30) --> 58,
(46,31) --> 25,
(46,32) --> 87,
(46,33) --> 23,
(46,34) --> 72,
(46,35) --> 21,
(46,36) --> 64,
(46,37) --> 52,
(46,38) --> 20,
(46,39) --> 6,
(46,40) --> 74,
(46,41) --> 27,
(46,42) --> 55,
(46,43) --> 61,
(46,44) --> 91,
(46,45) --> 59,
(46,46) --> 0,
(46,47) --> 27,
(46,48) --> 91,
(46,49) --> 75,
(47,0) --> 21,
(47,1) --> 34,
(47,2) --> 64,
(47,3) --> 34,
(47,4) --> 18,
(47,5) --> 60,
(47,6) --> 48,
(47,7) --> 32,
(47,8) --> 63,
(47,9) --> 9,
(47,10) --> 35,
(47,11) --> 58,
(47,12) --> 8,
(47,13) --> 33,
(47,14) --> 40,
(47,15) --> 48,
(47,16) --> 37,
(47,17) --> 69,
(47,18) --> 37,
(47,19) --> 68,
(47,20) --> 59,
(47,21) --> 50,
(47,22) --> 6,
(47,23) --> 13,
(47,24) --> 44,
(47,25) --> 37,
(47,26) --> 34,
(47,27) --> 39,
(47,28) --> 63,
(47,29) --> 16,
(47,30) --> 34,
(47,31) --> 4,
(47,32) --> 63,
(47,33) --> 4,
(47,34) --> 47,
(47,35) --> 16,
(47,36) --> 57,
(47,37) --> 56,
(47,38) --> 8,
(47,39) --> 30,
(47,40) --> 50,
(47,41) --> 4,
(47,42) --> 35,
(47,43) --> 41,
(47,44) --> 66,
(47,45) --> 53,
(47,46) --> 27,
(47,47) --> 0,
(47,48) --> 67,
(47,49) --> 50,
(48,0) --> 47,
(48,1) --> 96,
(48,2) --> 5,
(48,3) --> 74,
(48,4) --> 73,
(48,5) --> 69,
(48,6) --> 20,
(48,7) --> 62,
(48,8) --> 82,
(48,9) --> 73,
(48,10) --> 74,
(48,11) --> 81,
(48,12) --> 73,
(48,13) --> 98,
(48,14) --> 72,
(48,15) --> 19,
(48,16) --> 76,
(48,17) --> 2,
(48,18) --> 68,
(48,19) --> 6,
(48,20) --> 79,
(48,21) --> 64,
(48,22) --> 72,
(48,23) --> 72,
(48,24) --> 80,
(48,25) --> 61,
(48,26) --> 98,
(48,27) --> 78,
(48,28) --> 4,
(48,29) --> 73,
(48,30) --> 63,
(48,31) --> 71,
(48,32) --> 4,
(48,33) --> 70,
(48,34) --> 20,
(48,35) --> 71,
(48,36) --> 60,
(48,37) --> 80,
(48,38) --> 72,
(48,39) --> 96,
(48,40) --> 17,
(48,41) --> 70,
(48,42) --> 74,
(48,43) --> 77,
(48,44) --> 4,
(48,45) --> 61,
(48,46) --> 91,
(48,47) --> 67,
(48,48) --> 0,
(48,49) --> 17,
(49,0) --> 30,
(49,1) --> 80,
(49,2) --> 15,
(49,3) --> 58,
(49,4) --> 58,
(49,5) --> 62,
(49,6) --> 9,
(49,7) --> 47,
(49,8) --> 74,
(49,9) --> 56,
(49,10) --> 59,
(49,11) --> 71,
(49,12) --> 57,
(49,13) --> 81,
(49,14) --> 57,
(49,15) --> 4,
(49,16) --> 61,
(49,17) --> 18,
(49,18) --> 53,
(49,19) --> 18,
(49,20) --> 70,
(49,21) --> 56,
(49,22) --> 55,
(49,23) --> 56,
(49,24) --> 66,
(49,25) --> 47,
(49,26) --> 82,
(49,27) --> 63,
(49,28) --> 13,
(49,29) --> 58,
(49,30) --> 48,
(49,31) --> 54,
(49,32) --> 13,
(49,33) --> 54,
(49,34) --> 3,
(49,35) --> 55,
(49,36) --> 54,
(49,37) --> 71,
(49,38) --> 56,
(49,39) --> 80,
(49,40) --> 3,
(49,41) --> 53,
(49,42) --> 59,
(49,43) --> 62,
(49,44) --> 16,
(49,45) --> 54,
(49,46) --> 75,
(49,47) --> 50,
(49,48) --> 17,
(49,49) --> 0)
letting orderWeights be function (
1 --> 21
,
2 --> 8
,
3 --> 11
,
4 --> 7
,
5 --> 21
,
6 --> 5
,
7 --> 13
,
8 --> 10
,
9 --> 9
,
10 --> 20
,
11 --> 7
,
12 --> 12
,
13 --> 23
,
14 --> 2
,
15 --> 4
,
16 --> 14
,
17 --> 12
,
18 --> 3
,
19 --> 5
,
20 --> 13
,
21 --> 5
,
22 --> 12
,
23 --> 2
,
24 --> 3
,
25 --> 18
,
26 --> 24
,
27 --> 4
,
28 --> 63
,
29 --> 19
,
30 --> 2
,
31 --> 9
,
32 --> 4
,
33 --> 9
,
34 --> 23
,
35 --> 6
,
36 --> 3
,
37 --> 12
,
38 --> 7
,
39 --> 17
,
40 --> 22
,
41 --> 26
,
42 --> 14
,
43 --> 9
,
44 --> 2
,
45 --> 16
,
46 --> 24
,
47 --> 4
,
48 --> 19
,
49 --> 11
)
letting vehicleCapacity be 100
